# Solution for model r3_t36_m6_9
# Finished Task: 22 / 36
# Makespan: 1257.0, Total Distance: 1526.0, Total Time: 0.8422
# R O S F
0 0 6 0.0 0.0
1 1 18 0.0 0.0
2 2 31 0.0 0.0
3 -1 -1 -1.0 -1.0
4 -1 -1 -1.0 -1.0
5 0 19 609.0 638.0
6 0 17 341.0 365.0
7 -1 -1 -1.0 -1.0
8 0 37 988.0 1013.0
9 2 27 726.0 751.0
10 -1 -1 -1.0 -1.0
11 -1 -1 -1.0 -1.0
12 1 16 1047.0 1083.0
13 -1 -1 -1.0 -1.0
14 -1 -1 -1.0 -1.0
15 0 36 712.0 746.0
16 1 32 1159.0 1189.0
17 0 5 519.0 548.0
18 1 33 535.0 572.0
19 0 15 654.0 678.0
20 -1 -1 -1.0 -1.0
21 -1 -1 -1.0 -1.0
22 -1 -1 -1.0 -1.0
23 -1 -1 -1.0 -1.0
24 1 28 755.0 783.0
25 2 38 966.0 992.0
26 2 25 857.0 891.0
27 2 26 796.0 830.0
28 1 12 837.0 873.0
29 -1 -1 -1.0 -1.0
30 0 8 871.0 893.0
31 2 9 528.0 559.0
32 1 -1 1230.0 1257.0
33 1 24 654.0 690.0
34 -1 -1 -1.0 -1.0
35 -1 -1 -1.0 -1.0
36 0 30 827.0 849.0
37 0 -1 1088.0 1122.0
38 2 -1 1092.0 1117.0
